Route #1: 19 29 28 32 46
Route #2: 3 1 21 17 42 8
Route #3: 5 24 43 49 33 12
Route #4: 10 35 39 45 41 14
Route #5: 15 13 23 22 38 31
Route #6: 40 4 18 26 47 16 11 30 20
Route #7: 34 7 48 44
Route #8: 2 25 9 36 27 37 6
Cost 1354.02636518271